Route #1: 1 1 98 99 100 12 14 90 92 76 95 79 78 81 1 
Route #2: 1 7 2 77 86 88 84 93 85 3 18 10 13 5 9 16 43 39 52 1 
Route #3: 1 91 82 15 4 8 49 50 48 44 45 67 38 35 21 64 59 1 
Route #4: 1 83 87 94 58 62 19 24 1 
Route #5: 1 17 6 89 96 97 22 74 47 46 41 11 1 
Route #6: 1 51 42 40 72 73 68 70 1 
Route #7: 1 80 60 28 37 31 33 25 1 
Route #8: 1 53 55 61 23 34 29 71 1 
Route #9: 1 54 57 63 56 65 27 30 69 1 
Route #10: 1 20 32 26 75 1 
Route #11: 1 36 66 1 

Cost 3852.12
Time 1.2346


 * Another infos *

 Iterations: 101 Time: 1.2346 sec - 0.0206 min - 0.0003 horas
0.0000 h 0.0206 min
Problem dimension: 101
